(declare-sort Loc 0)
(declare-const l0 Loc)
(declare-const l2 Loc)
(declare-const l3 Loc)
(declare-const l4 Loc)
(declare-const l5 Loc)
(declare-const l1 Loc)
(declare-const l7 Loc)
(declare-const l8 Loc)
(declare-const l6 Loc)
(declare-const l9 Loc)
(declare-const l10 Loc)
(declare-const l11 Loc)
(declare-const l13 Loc)
(declare-const l12 Loc)
(declare-const l14 Loc)
(assert (distinct l0 l2 l3 l4 l5 l1 l7 l8 l6 l9 l10 l11 l13 l12 l14))

(define-fun cfg_init ( (pc Loc) (src Loc) (rel Bool) ) Bool
  (and (= pc src) rel))

(define-fun cfg_trans2 ( (pc Loc) (src Loc)
                         (pc1 Loc) (dst Loc)
                         (rel Bool) ) Bool
  (and (= pc src) (= pc1 dst) rel))

(define-fun cfg_trans3 ( (pc Loc) (exit Loc)
                         (pc1 Loc) (call Loc)
                         (pc2 Loc) (return Loc)
                         (rel Bool) ) Bool
  (and (= pc exit) (= pc1 call) (= pc2 return) rel))

(define-fun init_main ( (pc^0 Loc) (Result_4^0 Int) (__cil_tmp5_10^0 Int) (__disjvr_0^0 Int) (__disjvr_1^0 Int) (__disjvr_2^0 Int) (__disjvr_3^0 Int) (__disjvr_4^0 Int) (__patmp1^0 Int) (__patmp2^0 Int) (a_11^0 Int) (k_139^0 Int) (k_187^0 Int) (k_208^0 Int) (k_243^0 Int) (k_289^0 Int) (len_263^0 Int) (len_99^0 Int) (lt_24^0 Int) (lt_25^0 Int) (lt_26^0 Int) (lt_27^0 Int) (lt_32^0 Int) (lt_34^0 Int) (lt_35^0 Int) (lt_36^0 Int) (lt_37^0 Int) (lt_38^0 Int) (t_18^0 Int) (tmp_9^0 Int) (w_17^0 Int) (x_13^0 Int) (x_19^0 Int) (x_22^0 Int) (x_8^0 Int) (y_12^0 Int) (y_20^0 Int) (y_23^0 Int) ) Bool
  (cfg_init pc^0 l14 true))

(define-fun next_main (
                 (pc^0 Loc) (Result_4^0 Int) (__cil_tmp5_10^0 Int) (__disjvr_0^0 Int) (__disjvr_1^0 Int) (__disjvr_2^0 Int) (__disjvr_3^0 Int) (__disjvr_4^0 Int) (__patmp1^0 Int) (__patmp2^0 Int) (a_11^0 Int) (k_139^0 Int) (k_187^0 Int) (k_208^0 Int) (k_243^0 Int) (k_289^0 Int) (len_263^0 Int) (len_99^0 Int) (lt_24^0 Int) (lt_25^0 Int) (lt_26^0 Int) (lt_27^0 Int) (lt_32^0 Int) (lt_34^0 Int) (lt_35^0 Int) (lt_36^0 Int) (lt_37^0 Int) (lt_38^0 Int) (t_18^0 Int) (tmp_9^0 Int) (w_17^0 Int) (x_13^0 Int) (x_19^0 Int) (x_22^0 Int) (x_8^0 Int) (y_12^0 Int) (y_20^0 Int) (y_23^0 Int)
                 (pc^post Loc) (Result_4^post Int) (__cil_tmp5_10^post Int) (__disjvr_0^post Int) (__disjvr_1^post Int) (__disjvr_2^post Int) (__disjvr_3^post Int) (__disjvr_4^post Int) (__patmp1^post Int) (__patmp2^post Int) (a_11^post Int) (k_139^post Int) (k_187^post Int) (k_208^post Int) (k_243^post Int) (k_289^post Int) (len_263^post Int) (len_99^post Int) (lt_24^post Int) (lt_25^post Int) (lt_26^post Int) (lt_27^post Int) (lt_32^post Int) (lt_34^post Int) (lt_35^post Int) (lt_36^post Int) (lt_37^post Int) (lt_38^post Int) (t_18^post Int) (tmp_9^post Int) (w_17^post Int) (x_13^post Int) (x_19^post Int) (x_22^post Int) (x_8^post Int) (y_12^post Int) (y_20^post Int) (y_23^post Int)
             ) Bool
  (or
    (cfg_trans2 pc^0 l0 pc^post l2 (exists ( (lt_32^1 Int) ) (and (and (and (and (and (and (and (and (and (and (and (and (and (and (and (and (and (and (and (and (and (and (and (and (and (and (and (and (and (and (and (and (and (and (and (and (and (and (and (and (and (and (and (and (and (and (and (and (<= 0 (+ -1 k_243^0)) (<= 0 (+ 0 len_263^0))) (<= (+ 0 y_12^0) (+ 0 x_13^0))) (<= (+ 0 x_13^0) (+ 0 y_12^0))) (<= 0 (+ 0 len_263^0))) (= Result_4^post Result_4^post)) (<= 0 (+ 0 len_263^0))) (<= 0 (+ 0 len_263^0))) (= lt_34^post lt_34^post)) (<= 0 (+ 0 len_263^0))) (<= 0 (+ 0 len_263^0))) (<= 0 (+ 0 len_263^0))) (= lt_32^1 lt_32^1)) (= x_19^post (+ 0 lt_32^1))) (= lt_32^post lt_32^post)) (= y_20^post (+ 0 w_17^0))) (<= 0 (+ 0 len_263^0))) (= __cil_tmp5_10^0 __cil_tmp5_10^post)) (= __disjvr_0^0 __disjvr_0^post)) (= __disjvr_1^0 __disjvr_1^post)) (= __disjvr_2^0 __disjvr_2^post)) (= __disjvr_3^0 __disjvr_3^post)) (= __disjvr_4^0 __disjvr_4^post)) (= __patmp1^0 __patmp1^post)) (= __patmp2^0 __patmp2^post)) (= a_11^0 a_11^post)) (= k_139^0 k_139^post)) (= k_187^0 k_187^post)) (= k_208^0 k_208^post)) (= k_243^0 k_243^post)) (= k_289^0 k_289^post)) (= len_263^0 len_263^post)) (= len_99^0 len_99^post)) (= lt_24^0 lt_24^post)) (= lt_25^0 lt_25^post)) (= lt_26^0 lt_26^post)) (= lt_27^0 lt_27^post)) (= lt_35^0 lt_35^post)) (= lt_36^0 lt_36^post)) (= lt_37^0 lt_37^post)) (= lt_38^0 lt_38^post)) (= t_18^0 t_18^post)) (= tmp_9^0 tmp_9^post)) (= w_17^0 w_17^post)) (= x_13^0 x_13^post)) (= x_22^0 x_22^post)) (= x_8^0 x_8^post)) (= y_12^0 y_12^post)) (= y_23^0 y_23^post))))
    (cfg_trans2 pc^0 l2 pc^post l3 (and (and (and (and (and (and (and (and (and (and (and (and (and (and (and (and (and (and (and (and (and (and (and (and (and (and (and (and (and (and (and (and (and (and (and (and (and (= __disjvr_0^post __disjvr_0^0) (= Result_4^0 Result_4^post)) (= __cil_tmp5_10^0 __cil_tmp5_10^post)) (= __disjvr_0^0 __disjvr_0^post)) (= __disjvr_1^0 __disjvr_1^post)) (= __disjvr_2^0 __disjvr_2^post)) (= __disjvr_3^0 __disjvr_3^post)) (= __disjvr_4^0 __disjvr_4^post)) (= __patmp1^0 __patmp1^post)) (= __patmp2^0 __patmp2^post)) (= a_11^0 a_11^post)) (= k_139^0 k_139^post)) (= k_187^0 k_187^post)) (= k_208^0 k_208^post)) (= k_243^0 k_243^post)) (= k_289^0 k_289^post)) (= len_263^0 len_263^post)) (= len_99^0 len_99^post)) (= lt_24^0 lt_24^post)) (= lt_25^0 lt_25^post)) (= lt_26^0 lt_26^post)) (= lt_27^0 lt_27^post)) (= lt_32^0 lt_32^post)) (= lt_34^0 lt_34^post)) (= lt_35^0 lt_35^post)) (= lt_36^0 lt_36^post)) (= lt_37^0 lt_37^post)) (= lt_38^0 lt_38^post)) (= t_18^0 t_18^post)) (= tmp_9^0 tmp_9^post)) (= w_17^0 w_17^post)) (= x_13^0 x_13^post)) (= x_19^0 x_19^post)) (= x_22^0 x_22^post)) (= x_8^0 x_8^post)) (= y_12^0 y_12^post)) (= y_20^0 y_20^post)) (= y_23^0 y_23^post)))
    (cfg_trans2 pc^0 l3 pc^post l4 (and (and (and (and (and (and (and (and (and (and (and (and (and (and (and (and (and (and (and (and (and (and (and (and (and (and (and (and (and (and (and (and (and (and (and (and (= t_18^post (+ 0 x_19^0)) (= y_20^post (+ 0 t_18^post))) (= Result_4^0 Result_4^post)) (= __cil_tmp5_10^0 __cil_tmp5_10^post)) (= __disjvr_0^0 __disjvr_0^post)) (= __disjvr_1^0 __disjvr_1^post)) (= __disjvr_2^0 __disjvr_2^post)) (= __disjvr_3^0 __disjvr_3^post)) (= __disjvr_4^0 __disjvr_4^post)) (= __patmp1^0 __patmp1^post)) (= __patmp2^0 __patmp2^post)) (= a_11^0 a_11^post)) (= k_139^0 k_139^post)) (= k_187^0 k_187^post)) (= k_208^0 k_208^post)) (= k_243^0 k_243^post)) (= k_289^0 k_289^post)) (= len_263^0 len_263^post)) (= len_99^0 len_99^post)) (= lt_24^0 lt_24^post)) (= lt_25^0 lt_25^post)) (= lt_26^0 lt_26^post)) (= lt_27^0 lt_27^post)) (= lt_32^0 lt_32^post)) (= lt_34^0 lt_34^post)) (= lt_35^0 lt_35^post)) (= lt_36^0 lt_36^post)) (= lt_37^0 lt_37^post)) (= lt_38^0 lt_38^post)) (= tmp_9^0 tmp_9^post)) (= w_17^0 w_17^post)) (= x_13^0 x_13^post)) (= x_19^0 x_19^post)) (= x_22^0 x_22^post)) (= x_8^0 x_8^post)) (= y_12^0 y_12^post)) (= y_23^0 y_23^post)))
    (cfg_trans2 pc^0 l4 pc^post l5 (and (and (and (and (and (and (and (and (and (and (and (and (and (and (and (and (and (and (and (and (and (and (and (and (and (and (and (and (and (and (and (and (and (and (and (and (and (= __disjvr_1^post __disjvr_1^0) (= Result_4^0 Result_4^post)) (= __cil_tmp5_10^0 __cil_tmp5_10^post)) (= __disjvr_0^0 __disjvr_0^post)) (= __disjvr_1^0 __disjvr_1^post)) (= __disjvr_2^0 __disjvr_2^post)) (= __disjvr_3^0 __disjvr_3^post)) (= __disjvr_4^0 __disjvr_4^post)) (= __patmp1^0 __patmp1^post)) (= __patmp2^0 __patmp2^post)) (= a_11^0 a_11^post)) (= k_139^0 k_139^post)) (= k_187^0 k_187^post)) (= k_208^0 k_208^post)) (= k_243^0 k_243^post)) (= k_289^0 k_289^post)) (= len_263^0 len_263^post)) (= len_99^0 len_99^post)) (= lt_24^0 lt_24^post)) (= lt_25^0 lt_25^post)) (= lt_26^0 lt_26^post)) (= lt_27^0 lt_27^post)) (= lt_32^0 lt_32^post)) (= lt_34^0 lt_34^post)) (= lt_35^0 lt_35^post)) (= lt_36^0 lt_36^post)) (= lt_37^0 lt_37^post)) (= lt_38^0 lt_38^post)) (= t_18^0 t_18^post)) (= tmp_9^0 tmp_9^post)) (= w_17^0 w_17^post)) (= x_13^0 x_13^post)) (= x_19^0 x_19^post)) (= x_22^0 x_22^post)) (= x_8^0 x_8^post)) (= y_12^0 y_12^post)) (= y_20^0 y_20^post)) (= y_23^0 y_23^post)))
    (cfg_trans2 pc^0 l5 pc^post l1 (and (and (and (and (and (and (and (and (and (and (and (and (and (and (and (and (and (and (and (and (and (and (and (and (and (and (and (and (and (and (and (and (and (and (and (and (= t_18^post (+ 0 x_19^0)) (= y_20^post (+ 0 t_18^post))) (= Result_4^0 Result_4^post)) (= __cil_tmp5_10^0 __cil_tmp5_10^post)) (= __disjvr_0^0 __disjvr_0^post)) (= __disjvr_1^0 __disjvr_1^post)) (= __disjvr_2^0 __disjvr_2^post)) (= __disjvr_3^0 __disjvr_3^post)) (= __disjvr_4^0 __disjvr_4^post)) (= __patmp1^0 __patmp1^post)) (= __patmp2^0 __patmp2^post)) (= a_11^0 a_11^post)) (= k_139^0 k_139^post)) (= k_187^0 k_187^post)) (= k_208^0 k_208^post)) (= k_243^0 k_243^post)) (= k_289^0 k_289^post)) (= len_263^0 len_263^post)) (= len_99^0 len_99^post)) (= lt_24^0 lt_24^post)) (= lt_25^0 lt_25^post)) (= lt_26^0 lt_26^post)) (= lt_27^0 lt_27^post)) (= lt_32^0 lt_32^post)) (= lt_34^0 lt_34^post)) (= lt_35^0 lt_35^post)) (= lt_36^0 lt_36^post)) (= lt_37^0 lt_37^post)) (= lt_38^0 lt_38^post)) (= tmp_9^0 tmp_9^post)) (= w_17^0 w_17^post)) (= x_13^0 x_13^post)) (= x_19^0 x_19^post)) (= x_22^0 x_22^post)) (= x_8^0 x_8^post)) (= y_12^0 y_12^post)) (= y_23^0 y_23^post)))
    (cfg_trans2 pc^0 l0 pc^post l7 (and (and (and (and (and (and (and (and (and (and (and (and (and (and (and (and (and (and (and (and (and (and (and (and (and (and (and (and (and (and (and (and (and (and (and (and (and (and (<= 0 (+ -1 k_243^0)) (<= 0 (+ 0 len_263^0))) (= k_289^post (+ -1 k_243^0))) (= Result_4^0 Result_4^post)) (= __cil_tmp5_10^0 __cil_tmp5_10^post)) (= __disjvr_0^0 __disjvr_0^post)) (= __disjvr_1^0 __disjvr_1^post)) (= __disjvr_2^0 __disjvr_2^post)) (= __disjvr_3^0 __disjvr_3^post)) (= __disjvr_4^0 __disjvr_4^post)) (= __patmp1^0 __patmp1^post)) (= __patmp2^0 __patmp2^post)) (= a_11^0 a_11^post)) (= k_139^0 k_139^post)) (= k_187^0 k_187^post)) (= k_208^0 k_208^post)) (= k_243^0 k_243^post)) (= len_263^0 len_263^post)) (= len_99^0 len_99^post)) (= lt_24^0 lt_24^post)) (= lt_25^0 lt_25^post)) (= lt_26^0 lt_26^post)) (= lt_27^0 lt_27^post)) (= lt_32^0 lt_32^post)) (= lt_34^0 lt_34^post)) (= lt_35^0 lt_35^post)) (= lt_36^0 lt_36^post)) (= lt_37^0 lt_37^post)) (= lt_38^0 lt_38^post)) (= t_18^0 t_18^post)) (= tmp_9^0 tmp_9^post)) (= w_17^0 w_17^post)) (= x_13^0 x_13^post)) (= x_19^0 x_19^post)) (= x_22^0 x_22^post)) (= x_8^0 x_8^post)) (= y_12^0 y_12^post)) (= y_20^0 y_20^post)) (= y_23^0 y_23^post)))
    (cfg_trans2 pc^0 l7 pc^post l8 (and (and (and (and (and (and (and (and (and (and (and (and (and (and (and (and (and (and (and (and (and (and (and (and (and (and (and (and (and (and (and (and (and (and (and (and (and (= __disjvr_2^post __disjvr_2^0) (= Result_4^0 Result_4^post)) (= __cil_tmp5_10^0 __cil_tmp5_10^post)) (= __disjvr_0^0 __disjvr_0^post)) (= __disjvr_1^0 __disjvr_1^post)) (= __disjvr_2^0 __disjvr_2^post)) (= __disjvr_3^0 __disjvr_3^post)) (= __disjvr_4^0 __disjvr_4^post)) (= __patmp1^0 __patmp1^post)) (= __patmp2^0 __patmp2^post)) (= a_11^0 a_11^post)) (= k_139^0 k_139^post)) (= k_187^0 k_187^post)) (= k_208^0 k_208^post)) (= k_243^0 k_243^post)) (= k_289^0 k_289^post)) (= len_263^0 len_263^post)) (= len_99^0 len_99^post)) (= lt_24^0 lt_24^post)) (= lt_25^0 lt_25^post)) (= lt_26^0 lt_26^post)) (= lt_27^0 lt_27^post)) (= lt_32^0 lt_32^post)) (= lt_34^0 lt_34^post)) (= lt_35^0 lt_35^post)) (= lt_36^0 lt_36^post)) (= lt_37^0 lt_37^post)) (= lt_38^0 lt_38^post)) (= t_18^0 t_18^post)) (= tmp_9^0 tmp_9^post)) (= w_17^0 w_17^post)) (= x_13^0 x_13^post)) (= x_19^0 x_19^post)) (= x_22^0 x_22^post)) (= x_8^0 x_8^post)) (= y_12^0 y_12^post)) (= y_20^0 y_20^post)) (= y_23^0 y_23^post)))
    (cfg_trans2 pc^0 l8 pc^post l6 (exists ( (lt_24^1 Int) (lt_25^1 Int) ) (and (and (and (and (and (and (and (and (and (and (and (and (and (and (and (and (and (and (and (and (and (and (and (and (and (and (and (and (and (and (and (and (and (and (and (and (and (and (and (and (= lt_25^1 lt_25^1) (<= 0 (+ 0 k_289^0))) (<= 0 (+ 0 len_263^0))) (= __patmp1^post (+ 1 len_263^0))) (= __patmp2^post (+ 0 k_289^0))) (= len_263^post (+ 0 __patmp1^post))) (= k_243^post (+ 0 __patmp2^post))) (= lt_25^post lt_25^post)) (= lt_24^1 lt_24^1)) (= x_13^post (+ 0 lt_24^1))) (= lt_24^post lt_24^post)) (= Result_4^0 Result_4^post)) (= __cil_tmp5_10^0 __cil_tmp5_10^post)) (= __disjvr_0^0 __disjvr_0^post)) (= __disjvr_1^0 __disjvr_1^post)) (= __disjvr_2^0 __disjvr_2^post)) (= __disjvr_3^0 __disjvr_3^post)) (= __disjvr_4^0 __disjvr_4^post)) (= a_11^0 a_11^post)) (= k_139^0 k_139^post)) (= k_187^0 k_187^post)) (= k_208^0 k_208^post)) (= k_289^0 k_289^post)) (= len_99^0 len_99^post)) (= lt_26^0 lt_26^post)) (= lt_27^0 lt_27^post)) (= lt_32^0 lt_32^post)) (= lt_34^0 lt_34^post)) (= lt_35^0 lt_35^post)) (= lt_36^0 lt_36^post)) (= lt_37^0 lt_37^post)) (= lt_38^0 lt_38^post)) (= t_18^0 t_18^post)) (= tmp_9^0 tmp_9^post)) (= w_17^0 w_17^post)) (= x_19^0 x_19^post)) (= x_22^0 x_22^post)) (= x_8^0 x_8^post)) (= y_12^0 y_12^post)) (= y_20^0 y_20^post)) (= y_23^0 y_23^post))))
    (cfg_trans2 pc^0 l6 pc^post l0 (and (and (and (and (and (and (and (and (and (and (and (and (and (and (and (and (and (and (and (and (and (and (and (and (and (and (and (and (and (and (and (and (and (and (and (and (= Result_4^0 Result_4^post) (= __cil_tmp5_10^0 __cil_tmp5_10^post)) (= __disjvr_0^0 __disjvr_0^post)) (= __disjvr_1^0 __disjvr_1^post)) (= __disjvr_2^0 __disjvr_2^post)) (= __disjvr_3^0 __disjvr_3^post)) (= __disjvr_4^0 __disjvr_4^post)) (= __patmp1^0 __patmp1^post)) (= __patmp2^0 __patmp2^post)) (= a_11^0 a_11^post)) (= k_139^0 k_139^post)) (= k_187^0 k_187^post)) (= k_208^0 k_208^post)) (= k_243^0 k_243^post)) (= k_289^0 k_289^post)) (= len_263^0 len_263^post)) (= len_99^0 len_99^post)) (= lt_24^0 lt_24^post)) (= lt_25^0 lt_25^post)) (= lt_26^0 lt_26^post)) (= lt_27^0 lt_27^post)) (= lt_32^0 lt_32^post)) (= lt_34^0 lt_34^post)) (= lt_35^0 lt_35^post)) (= lt_36^0 lt_36^post)) (= lt_37^0 lt_37^post)) (= lt_38^0 lt_38^post)) (= t_18^0 t_18^post)) (= tmp_9^0 tmp_9^post)) (= w_17^0 w_17^post)) (= x_13^0 x_13^post)) (= x_19^0 x_19^post)) (= x_22^0 x_22^post)) (= x_8^0 x_8^post)) (= y_12^0 y_12^post)) (= y_20^0 y_20^post)) (= y_23^0 y_23^post)))
    (cfg_trans2 pc^0 l9 pc^post l10 (exists ( (Result_4^1 Int) (Result_4^2 Int) (Result_4^3 Int) (__cil_tmp5_10^1 Int) (__cil_tmp5_10^2 Int) (__cil_tmp5_10^3 Int) (lt_35^1 Int) (lt_36^1 Int) (lt_37^1 Int) (lt_38^1 Int) (tmp_9^1 Int) (tmp_9^2 Int) (tmp_9^3 Int) (x_8^1 Int) (x_8^2 Int) (x_8^3 Int) ) (and (and (and (and (and (and (and (and (and (and (and (and (and (and (and (and (and (and (and (and (and (and (and (and (and (and (and (and (and (and (and (and (and (and (and (and (and (and (and (and (and (and (and (and (and (and (and (and (and (and (and (and (and (and (and (and (and (and (and (and (and (and (and (= x_22^post x_22^post) (= y_23^post 0)) (= lt_38^1 lt_38^1)) (= tmp_9^1 tmp_9^1)) (= x_8^1 (+ 0 tmp_9^1))) (= __cil_tmp5_10^1 (+ 0 x_8^1))) (= Result_4^1 (+ 0 __cil_tmp5_10^1))) (= lt_38^post lt_38^post)) (= lt_37^1 lt_37^1)) (= tmp_9^2 tmp_9^2)) (= x_8^2 (+ 0 tmp_9^2))) (= __cil_tmp5_10^2 (+ 0 x_8^2))) (= Result_4^2 (+ 0 __cil_tmp5_10^2))) (= len_99^post 2)) (= lt_37^post lt_37^post)) (= lt_36^1 lt_36^1)) (<= 0 (+ 0 len_99^post))) (<= 0 (+ 0 len_99^post))) (= tmp_9^3 tmp_9^3)) (= x_8^3 (+ 0 tmp_9^3))) (= __cil_tmp5_10^3 (+ 0 x_8^3))) (= Result_4^3 (+ 0 __cil_tmp5_10^3))) (<= 0 (+ 0 len_99^post))) (<= 0 (+ 0 len_99^post))) (= k_139^post (+ 1 len_99^post))) (= lt_36^post lt_36^post)) (= lt_35^1 lt_35^1)) (<= 0 (+ 0 k_139^post))) (<= 0 (+ 0 k_139^post))) (= tmp_9^post tmp_9^post)) (= x_8^post (+ 0 tmp_9^post))) (= __cil_tmp5_10^post (+ 0 x_8^post))) (= Result_4^post (+ 0 __cil_tmp5_10^post))) (<= 0 (+ 0 k_139^post))) (<= 0 (+ 0 k_139^post))) (= k_187^post (+ 1 k_139^post))) (= lt_35^post lt_35^post)) (= lt_34^post lt_34^post)) (<= 0 (+ 0 k_187^post))) (<= 0 (+ 0 k_187^post))) (= x_13^post (+ 0 a_11^0))) (<= 0 (+ 0 k_187^post))) (= k_208^post (+ 0 k_187^post))) (= __disjvr_0^0 __disjvr_0^post)) (= __disjvr_1^0 __disjvr_1^post)) (= __disjvr_2^0 __disjvr_2^post)) (= __disjvr_3^0 __disjvr_3^post)) (= __disjvr_4^0 __disjvr_4^post)) (= __patmp1^0 __patmp1^post)) (= __patmp2^0 __patmp2^post)) (= a_11^0 a_11^post)) (= k_243^0 k_243^post)) (= k_289^0 k_289^post)) (= len_263^0 len_263^post)) (= lt_24^0 lt_24^post)) (= lt_25^0 lt_25^post)) (= lt_26^0 lt_26^post)) (= lt_27^0 lt_27^post)) (= lt_32^0 lt_32^post)) (= t_18^0 t_18^post)) (= w_17^0 w_17^post)) (= x_19^0 x_19^post)) (= y_12^0 y_12^post)) (= y_20^0 y_20^post))))
    (cfg_trans2 pc^0 l10 pc^post l11 (and (and (and (and (and (and (and (and (and (and (and (and (and (and (and (and (and (and (and (and (and (and (and (and (and (and (and (and (and (and (and (and (and (and (and (and (and (= __disjvr_3^post __disjvr_3^0) (= Result_4^0 Result_4^post)) (= __cil_tmp5_10^0 __cil_tmp5_10^post)) (= __disjvr_0^0 __disjvr_0^post)) (= __disjvr_1^0 __disjvr_1^post)) (= __disjvr_2^0 __disjvr_2^post)) (= __disjvr_3^0 __disjvr_3^post)) (= __disjvr_4^0 __disjvr_4^post)) (= __patmp1^0 __patmp1^post)) (= __patmp2^0 __patmp2^post)) (= a_11^0 a_11^post)) (= k_139^0 k_139^post)) (= k_187^0 k_187^post)) (= k_208^0 k_208^post)) (= k_243^0 k_243^post)) (= k_289^0 k_289^post)) (= len_263^0 len_263^post)) (= len_99^0 len_99^post)) (= lt_24^0 lt_24^post)) (= lt_25^0 lt_25^post)) (= lt_26^0 lt_26^post)) (= lt_27^0 lt_27^post)) (= lt_32^0 lt_32^post)) (= lt_34^0 lt_34^post)) (= lt_35^0 lt_35^post)) (= lt_36^0 lt_36^post)) (= lt_37^0 lt_37^post)) (= lt_38^0 lt_38^post)) (= t_18^0 t_18^post)) (= tmp_9^0 tmp_9^post)) (= w_17^0 w_17^post)) (= x_13^0 x_13^post)) (= x_19^0 x_19^post)) (= x_22^0 x_22^post)) (= x_8^0 x_8^post)) (= y_12^0 y_12^post)) (= y_20^0 y_20^post)) (= y_23^0 y_23^post)))
    (cfg_trans2 pc^0 l11 pc^post l0 (exists ( (lt_26^1 Int) (lt_27^1 Int) ) (and (and (and (and (and (and (and (and (and (and (and (and (and (and (and (and (and (and (and (and (and (and (and (and (and (and (and (and (and (and (and (and (and (and (and (and (and (and (and (= lt_27^1 lt_27^1) (<= 0 (+ 0 k_208^0))) (= __patmp1^post 1)) (= __patmp2^post (+ 0 k_208^0))) (= len_263^post (+ 0 __patmp1^post))) (= k_243^post (+ 0 __patmp2^post))) (= lt_27^post lt_27^post)) (= lt_26^1 lt_26^1)) (= x_13^post (+ 0 lt_26^1))) (= lt_26^post lt_26^post)) (= Result_4^0 Result_4^post)) (= __cil_tmp5_10^0 __cil_tmp5_10^post)) (= __disjvr_0^0 __disjvr_0^post)) (= __disjvr_1^0 __disjvr_1^post)) (= __disjvr_2^0 __disjvr_2^post)) (= __disjvr_3^0 __disjvr_3^post)) (= __disjvr_4^0 __disjvr_4^post)) (= a_11^0 a_11^post)) (= k_139^0 k_139^post)) (= k_187^0 k_187^post)) (= k_208^0 k_208^post)) (= k_289^0 k_289^post)) (= len_99^0 len_99^post)) (= lt_24^0 lt_24^post)) (= lt_25^0 lt_25^post)) (= lt_32^0 lt_32^post)) (= lt_34^0 lt_34^post)) (= lt_35^0 lt_35^post)) (= lt_36^0 lt_36^post)) (= lt_37^0 lt_37^post)) (= lt_38^0 lt_38^post)) (= t_18^0 t_18^post)) (= tmp_9^0 tmp_9^post)) (= w_17^0 w_17^post)) (= x_19^0 x_19^post)) (= x_22^0 x_22^post)) (= x_8^0 x_8^post)) (= y_12^0 y_12^post)) (= y_20^0 y_20^post)) (= y_23^0 y_23^post))))
    (cfg_trans2 pc^0 l1 pc^post l13 (and (and (and (and (and (and (and (and (and (and (and (and (and (and (and (and (and (and (and (and (and (and (and (and (and (and (and (and (and (and (and (and (and (and (and (and (and (= __disjvr_4^post __disjvr_4^0) (= Result_4^0 Result_4^post)) (= __cil_tmp5_10^0 __cil_tmp5_10^post)) (= __disjvr_0^0 __disjvr_0^post)) (= __disjvr_1^0 __disjvr_1^post)) (= __disjvr_2^0 __disjvr_2^post)) (= __disjvr_3^0 __disjvr_3^post)) (= __disjvr_4^0 __disjvr_4^post)) (= __patmp1^0 __patmp1^post)) (= __patmp2^0 __patmp2^post)) (= a_11^0 a_11^post)) (= k_139^0 k_139^post)) (= k_187^0 k_187^post)) (= k_208^0 k_208^post)) (= k_243^0 k_243^post)) (= k_289^0 k_289^post)) (= len_263^0 len_263^post)) (= len_99^0 len_99^post)) (= lt_24^0 lt_24^post)) (= lt_25^0 lt_25^post)) (= lt_26^0 lt_26^post)) (= lt_27^0 lt_27^post)) (= lt_32^0 lt_32^post)) (= lt_34^0 lt_34^post)) (= lt_35^0 lt_35^post)) (= lt_36^0 lt_36^post)) (= lt_37^0 lt_37^post)) (= lt_38^0 lt_38^post)) (= t_18^0 t_18^post)) (= tmp_9^0 tmp_9^post)) (= w_17^0 w_17^post)) (= x_13^0 x_13^post)) (= x_19^0 x_19^post)) (= x_22^0 x_22^post)) (= x_8^0 x_8^post)) (= y_12^0 y_12^post)) (= y_20^0 y_20^post)) (= y_23^0 y_23^post)))
    (cfg_trans2 pc^0 l13 pc^post l12 (and (and (and (and (and (and (and (and (and (and (and (and (and (and (and (and (and (and (and (and (and (and (and (and (and (and (and (and (and (and (and (and (and (and (and (and (= t_18^post (+ 0 x_19^0)) (= y_20^post (+ 0 t_18^post))) (= Result_4^0 Result_4^post)) (= __cil_tmp5_10^0 __cil_tmp5_10^post)) (= __disjvr_0^0 __disjvr_0^post)) (= __disjvr_1^0 __disjvr_1^post)) (= __disjvr_2^0 __disjvr_2^post)) (= __disjvr_3^0 __disjvr_3^post)) (= __disjvr_4^0 __disjvr_4^post)) (= __patmp1^0 __patmp1^post)) (= __patmp2^0 __patmp2^post)) (= a_11^0 a_11^post)) (= k_139^0 k_139^post)) (= k_187^0 k_187^post)) (= k_208^0 k_208^post)) (= k_243^0 k_243^post)) (= k_289^0 k_289^post)) (= len_263^0 len_263^post)) (= len_99^0 len_99^post)) (= lt_24^0 lt_24^post)) (= lt_25^0 lt_25^post)) (= lt_26^0 lt_26^post)) (= lt_27^0 lt_27^post)) (= lt_32^0 lt_32^post)) (= lt_34^0 lt_34^post)) (= lt_35^0 lt_35^post)) (= lt_36^0 lt_36^post)) (= lt_37^0 lt_37^post)) (= lt_38^0 lt_38^post)) (= tmp_9^0 tmp_9^post)) (= w_17^0 w_17^post)) (= x_13^0 x_13^post)) (= x_19^0 x_19^post)) (= x_22^0 x_22^post)) (= x_8^0 x_8^post)) (= y_12^0 y_12^post)) (= y_23^0 y_23^post)))
    (cfg_trans2 pc^0 l12 pc^post l1 (and (and (and (and (and (and (and (and (and (and (and (and (and (and (and (and (and (and (and (and (and (and (and (and (and (and (and (and (and (and (and (and (and (and (and (and (= Result_4^0 Result_4^post) (= __cil_tmp5_10^0 __cil_tmp5_10^post)) (= __disjvr_0^0 __disjvr_0^post)) (= __disjvr_1^0 __disjvr_1^post)) (= __disjvr_2^0 __disjvr_2^post)) (= __disjvr_3^0 __disjvr_3^post)) (= __disjvr_4^0 __disjvr_4^post)) (= __patmp1^0 __patmp1^post)) (= __patmp2^0 __patmp2^post)) (= a_11^0 a_11^post)) (= k_139^0 k_139^post)) (= k_187^0 k_187^post)) (= k_208^0 k_208^post)) (= k_243^0 k_243^post)) (= k_289^0 k_289^post)) (= len_263^0 len_263^post)) (= len_99^0 len_99^post)) (= lt_24^0 lt_24^post)) (= lt_25^0 lt_25^post)) (= lt_26^0 lt_26^post)) (= lt_27^0 lt_27^post)) (= lt_32^0 lt_32^post)) (= lt_34^0 lt_34^post)) (= lt_35^0 lt_35^post)) (= lt_36^0 lt_36^post)) (= lt_37^0 lt_37^post)) (= lt_38^0 lt_38^post)) (= t_18^0 t_18^post)) (= tmp_9^0 tmp_9^post)) (= w_17^0 w_17^post)) (= x_13^0 x_13^post)) (= x_19^0 x_19^post)) (= x_22^0 x_22^post)) (= x_8^0 x_8^post)) (= y_12^0 y_12^post)) (= y_20^0 y_20^post)) (= y_23^0 y_23^post)))
    (cfg_trans2 pc^0 l14 pc^post l9 (and (and (and (and (and (and (and (and (and (and (and (and (and (and (and (and (and (and (and (and (and (and (and (and (and (and (and (and (and (and (and (and (and (and (and (and (= Result_4^0 Result_4^post) (= __cil_tmp5_10^0 __cil_tmp5_10^post)) (= __disjvr_0^0 __disjvr_0^post)) (= __disjvr_1^0 __disjvr_1^post)) (= __disjvr_2^0 __disjvr_2^post)) (= __disjvr_3^0 __disjvr_3^post)) (= __disjvr_4^0 __disjvr_4^post)) (= __patmp1^0 __patmp1^post)) (= __patmp2^0 __patmp2^post)) (= a_11^0 a_11^post)) (= k_139^0 k_139^post)) (= k_187^0 k_187^post)) (= k_208^0 k_208^post)) (= k_243^0 k_243^post)) (= k_289^0 k_289^post)) (= len_263^0 len_263^post)) (= len_99^0 len_99^post)) (= lt_24^0 lt_24^post)) (= lt_25^0 lt_25^post)) (= lt_26^0 lt_26^post)) (= lt_27^0 lt_27^post)) (= lt_32^0 lt_32^post)) (= lt_34^0 lt_34^post)) (= lt_35^0 lt_35^post)) (= lt_36^0 lt_36^post)) (= lt_37^0 lt_37^post)) (= lt_38^0 lt_38^post)) (= t_18^0 t_18^post)) (= tmp_9^0 tmp_9^post)) (= w_17^0 w_17^post)) (= x_13^0 x_13^post)) (= x_19^0 x_19^post)) (= x_22^0 x_22^post)) (= x_8^0 x_8^post)) (= y_12^0 y_12^post)) (= y_20^0 y_20^post)) (= y_23^0 y_23^post)))
  )
)
